Instance name:    bar-n100-1
Authors:          PDPTW Solver
Date:             2025-11-20
Reference:        LNS with SA/RTR
Solution
Route 1 : 31 14 15 43 65 45 64 4 81 46 95 96 54 93 37 87
Route 2 : 33 13 63 35 10 60 40 38 83 28 78 88 85 49 99 48 98 90 23 73
Route 3 : 17 20 67 2 52 16 66 32 82 24 27 77 70 74 1 51
Route 4 : 29 21 71 47 79 11 22 97 72 61 25 6 56 36 75 50 100 86
Route 5 : 26 76 30 80 9 59 42 5 55 7 57 39 92 89 18 68 8 58
Route 6 : 12 44 62 41 34 84 91 19 69 94 3 53
